c 
p cnf 10 40
-10 2 -1 7 0
-9 0
5 -1 6 -8 -7 0
10 0
-5 10 0
1 -6 5 2 8 0
-1 8 6 0
10 -2 9 0
8 9 4 3 0
-6 -5 0
-1 7 2 6 0
6 0
10 0
-2 -3 0
8 9 0
-6 5 8 0
8 1 -4 -2 0
-8 3 -9 0
2 1 0
-10 0
-2 5 -10 8 0
-9 4 -8 0
-6 -3 -8 0
9 10 4 -1 0
5 -7 -4 1 0
3 -5 0
-8 -4 2 3 0
6 -4 5 0
-2 9 -5 -7 0
-4 -1 3 -9 0
-1 9 -7 0
-7 0
7 4 -9 5 0
-4 0
-6 -1 0
6 5 1 -7 0
3 -6 10 -9 0
5 -3 1 0
-6 -4 8 0
-3 1 2 7 0
